NAME: tsp_212
COMMENT: Random TSP instance
TYPE: TSP
DIMENSION: 50
EDGE_WEIGHT_TYPE: EUC_2D
NODE_COORD_SECTION
1 140 592
2 862 22
3 237 854
4 544 672
5 894 710
6 379 423
7 40 191
8 448 720
9 38 818
10 257 804
11 152 673
12 525 391
13 819 351
14 618 311
15 877 812
16 767 559
17 100 321
18 475 356
19 843 849
20 707 821
21 184 690
22 711 208
23 615 448
24 247 950
25 806 100
26 715 369
27 668 492
28 847 356
29 255 363
30 560 157
31 562 860
32 614 974
33 984 869
34 153 338
35 337 181
36 984 651
37 663 101
38 84 517
39 795 390
40 922 883
41 994 453
42 292 306
43 536 643
44 344 553
45 538 864
46 473 222
47 655 983
48 295 477
49 944 679
50 152 521
